(declare-const a Real)
(declare-const b Real)
(declare-const c Real)
(assert (= (+ a b c) 3))
(assert (> a 0))
(assert (> b 0))
(assert (> c 0))
(assert (not (<= (+ (pow (+ (/ 3 2) (* (/ 1 6) (pow a 3)) (* (/ 1 6) (pow b 3)) (* (/ 1 6) (pow c 3)) (* 4 a b c)) (/ 2 3)) (* -1 a) (* -1 b) (* -1 c)) 0)))
(check-sat)
(get-model)
(exit)